\Problem name: compact

Minimize
OBJROW: C
Subject To
ord(0,1):  - x(0,0) + x(0,3) >= 1
ord(0,2):  x(0,2) - x(0,3) >= 8
ord(0,3):  x(0,1) - x(0,2) >= 9
ord(1,1):  - x(1,0) + x(1,2) >= 7
ord(1,2):  - x(1,2) + x(1,3) >= 4
ord(1,3):  x(1,1) - x(1,3) >= 6
ord(2,1):  x(2,1) - x(2,2) >= 1
ord(2,2):  - x(2,1) + x(2,3) >= 2
ord(2,3):  x(2,0) - x(2,3) >= 10
triangle2(0,1,0):  y(0,1,0) + y(1,0,0) = 1
triangle2(0,1,1):  y(0,1,1) + y(1,0,1) = 1
triangle2(0,1,2):  y(0,1,2) + y(1,0,2) = 1
triangle2(0,1,3):  y(0,1,3) + y(1,0,3) = 1
triangle2(0,2,0):  y(0,2,0) + y(2,0,0) = 1
triangle2(0,2,1):  y(0,2,1) + y(2,0,1) = 1
triangle2(0,2,2):  y(0,2,2) + y(2,0,2) = 1
triangle2(0,2,3):  y(0,2,3) + y(2,0,3) = 1
triangle2(1,2,0):  y(1,2,0) + y(2,1,0) = 1
triangle2(1,2,1):  y(1,2,1) + y(2,1,1) = 1
triangle2(1,2,2):  y(1,2,2) + y(2,1,2) = 1
triangle2(1,2,3):  y(1,2,3) + y(2,1,3) = 1
MCLinV(0,1,0):  x(0,0) - v(0,1,0) - x(1,0) = 7
MCLinV(1,0,0):  - x(0,0) - v(1,0,0) + x(1,0) = 1
MCLin1(0,1,0):  u(0,1,0) >= -0
MCLin2(0,1,0):  -51 y(1,0,0) - u(0,1,0) <= -0
MCLin3(0,1,0):  32 y(1,0,0) + v(0,1,0) - u(0,1,0) <= 32
MCLin4(0,1,0):  32 y(1,0,0) - u(0,1,0) >= -0
MCLin5(0,1,0):  -51 y(1,0,0) + v(0,1,0) - u(0,1,0) >= -51
MCLin6(1,0,0):  u(1,0,0) >= -0
MCLin7(1,0,0):  -40 y(0,1,0) - u(1,0,0) <= -0
MCLin8(1,0,0):  43 y(0,1,0) + v(1,0,0) - u(1,0,0) <= 43
MCLin9(1,0,0):  43 y(0,1,0) - u(1,0,0) >= -0
MCLin10(1,0,0):  -40 y(0,1,0) + v(1,0,0) - u(1,0,0) >= -40
MCLinV(0,1,1):  x(0,1) - v(0,1,1) - x(1,1) = 4
MCLinV(1,0,1):  - x(0,1) - v(1,0,1) + x(1,1) = 8
MCLin1(0,1,1):  u(0,1,1) >= -0
MCLin2(0,1,1):  -47 y(1,0,1) - u(0,1,1) <= -0
MCLin3(0,1,1):  36 y(1,0,1) + v(0,1,1) - u(0,1,1) <= 36
MCLin4(0,1,1):  36 y(1,0,1) - u(0,1,1) >= -0
MCLin5(0,1,1):  -47 y(1,0,1) + v(0,1,1) - u(0,1,1) >= -47
MCLin6(1,0,1):  u(1,0,1) >= -0
MCLin7(1,0,1):  -48 y(0,1,1) - u(1,0,1) <= -0
MCLin8(1,0,1):  35 y(0,1,1) + v(1,0,1) - u(1,0,1) <= 35
MCLin9(1,0,1):  35 y(0,1,1) - u(1,0,1) >= -0
MCLin10(1,0,1):  -48 y(0,1,1) + v(1,0,1) - u(1,0,1) >= -48
MCLinV(0,1,2):  x(0,2) - v(0,1,2) - x(1,2) = 4
MCLinV(1,0,2):  - x(0,2) - v(1,0,2) + x(1,2) = 9
MCLin1(0,1,2):  u(0,1,2) >= -0
MCLin2(0,1,2):  -46 y(1,0,2) - u(0,1,2) <= -0
MCLin3(0,1,2):  37 y(1,0,2) + v(0,1,2) - u(0,1,2) <= 37
MCLin4(0,1,2):  37 y(1,0,2) - u(0,1,2) >= -0
MCLin5(0,1,2):  -46 y(1,0,2) + v(0,1,2) - u(0,1,2) >= -46
MCLin6(1,0,2):  u(1,0,2) >= -0
MCLin7(1,0,2):  -50 y(0,1,2) - u(1,0,2) <= -0
MCLin8(1,0,2):  33 y(0,1,2) + v(1,0,2) - u(1,0,2) <= 33
MCLin9(1,0,2):  33 y(0,1,2) - u(1,0,2) >= -0
MCLin10(1,0,2):  -50 y(0,1,2) + v(1,0,2) - u(1,0,2) >= -50
MCLinV(0,1,3):  x(0,3) - v(0,1,3) - x(1,3) = 6
MCLinV(1,0,3):  - x(0,3) - v(1,0,3) + x(1,3) = 8
MCLin1(0,1,3):  u(0,1,3) >= -0
MCLin2(0,1,3):  -60 y(1,0,3) - u(0,1,3) <= -0
MCLin3(0,1,3):  23 y(1,0,3) + v(0,1,3) - u(0,1,3) <= 23
MCLin4(0,1,3):  23 y(1,0,3) - u(0,1,3) >= -0
MCLin5(0,1,3):  -60 y(1,0,3) + v(0,1,3) - u(0,1,3) >= -60
MCLin6(1,0,3):  u(1,0,3) >= -0
MCLin7(1,0,3):  -37 y(0,1,3) - u(1,0,3) <= -0
MCLin8(1,0,3):  46 y(0,1,3) + v(1,0,3) - u(1,0,3) <= 46
MCLin9(1,0,3):  46 y(0,1,3) - u(1,0,3) >= -0
MCLin10(1,0,3):  -37 y(0,1,3) + v(1,0,3) - u(1,0,3) >= -37
MCLinV(0,2,0):  x(0,0) - v(0,2,0) - x(2,0) = 5
MCLinV(2,0,0):  - x(0,0) - v(2,0,0) + x(2,0) = 1
MCLin1(0,2,0):  u(0,2,0) >= -0
MCLin2(0,2,0):  -65 y(2,0,0) - u(0,2,0) <= -0
MCLin3(0,2,0):  21 y(2,0,0) + v(0,2,0) - u(0,2,0) <= 21
MCLin4(0,2,0):  21 y(2,0,0) - u(0,2,0) >= -0
MCLin5(0,2,0):  -65 y(2,0,0) + v(0,2,0) - u(0,2,0) >= -65
MCLin6(2,0,0):  u(2,0,0) >= -0
MCLin7(2,0,0):  -27 y(0,2,0) - u(2,0,0) <= -0
MCLin8(2,0,0):  59 y(0,2,0) + v(2,0,0) - u(2,0,0) <= 59
MCLin9(2,0,0):  59 y(0,2,0) - u(2,0,0) >= -0
MCLin10(2,0,0):  -27 y(0,2,0) + v(2,0,0) - u(2,0,0) >= -27
MCLinV(0,2,1):  x(0,1) - v(0,2,1) - x(2,1) = 2
MCLinV(2,0,1):  - x(0,1) - v(2,0,1) + x(2,1) = 8
MCLin1(0,2,1):  u(0,2,1) >= -0
MCLin2(0,2,1):  -32 y(2,0,1) - u(0,2,1) <= -0
MCLin3(0,2,1):  54 y(2,0,1) + v(0,2,1) - u(0,2,1) <= 54
MCLin4(0,2,1):  54 y(2,0,1) - u(0,2,1) >= -0
MCLin5(0,2,1):  -32 y(2,0,1) + v(0,2,1) - u(0,2,1) >= -32
MCLin6(2,0,1):  u(2,0,1) >= -0
MCLin7(2,0,1):  -64 y(0,2,1) - u(2,0,1) <= -0
MCLin8(2,0,1):  22 y(0,2,1) + v(2,0,1) - u(2,0,1) <= 22
MCLin9(2,0,1):  22 y(0,2,1) - u(2,0,1) >= -0
MCLin10(2,0,1):  -64 y(0,2,1) + v(2,0,1) - u(2,0,1) >= -64
MCLinV(0,2,2):  x(0,2) - v(0,2,2) - x(2,2) = 1
MCLinV(2,0,2):  - x(0,2) - v(2,0,2) + x(2,2) = 9
MCLin1(0,2,2):  u(0,2,2) >= -0
MCLin2(0,2,2):  -39 y(2,0,2) - u(0,2,2) <= -0
MCLin3(0,2,2):  47 y(2,0,2) + v(0,2,2) - u(0,2,2) <= 47
MCLin4(0,2,2):  47 y(2,0,2) - u(0,2,2) >= -0
MCLin5(0,2,2):  -39 y(2,0,2) + v(0,2,2) - u(0,2,2) >= -39
MCLin6(2,0,2):  u(2,0,2) >= -0
MCLin7(2,0,2):  -57 y(0,2,2) - u(2,0,2) <= -0
MCLin8(2,0,2):  29 y(0,2,2) + v(2,0,2) - u(2,0,2) <= 29
MCLin9(2,0,2):  29 y(0,2,2) - u(2,0,2) >= -0
MCLin10(2,0,2):  -57 y(0,2,2) + v(2,0,2) - u(2,0,2) >= -57
MCLinV(0,2,3):  x(0,3) - v(0,2,3) - x(2,3) = 10
MCLinV(2,0,3):  - x(0,3) - v(2,0,3) + x(2,3) = 8
MCLin1(0,2,3):  u(0,2,3) >= -0
MCLin2(0,2,3):  -59 y(2,0,3) - u(0,2,3) <= -0
MCLin3(0,2,3):  27 y(2,0,3) + v(0,2,3) - u(0,2,3) <= 27
MCLin4(0,2,3):  27 y(2,0,3) - u(0,2,3) >= -0
MCLin5(0,2,3):  -59 y(2,0,3) + v(0,2,3) - u(0,2,3) >= -59
MCLin6(2,0,3):  u(2,0,3) >= -0
MCLin7(2,0,3):  -45 y(0,2,3) - u(2,0,3) <= -0
MCLin8(2,0,3):  41 y(0,2,3) + v(2,0,3) - u(2,0,3) <= 41
MCLin9(2,0,3):  41 y(0,2,3) - u(2,0,3) >= -0
MCLin10(2,0,3):  -45 y(0,2,3) + v(2,0,3) - u(2,0,3) >= -45
MCLinV(1,2,0):  x(1,0) - v(1,2,0) - x(2,0) = 5
MCLinV(2,1,0):  - x(1,0) - v(2,1,0) + x(2,0) = 7
MCLin1(1,2,0):  u(1,2,0) >= -0
MCLin2(1,2,0):  -65 y(2,1,0) - u(1,2,0) <= -0
MCLin3(1,2,0):  26 y(2,1,0) + v(1,2,0) - u(1,2,0) <= 26
MCLin4(1,2,0):  26 y(2,1,0) - u(1,2,0) >= -0
MCLin5(1,2,0):  -65 y(2,1,0) + v(1,2,0) - u(1,2,0) >= -65
MCLin6(2,1,0):  u(2,1,0) >= -0
MCLin7(2,1,0):  -38 y(1,2,0) - u(2,1,0) <= -0
MCLin8(2,1,0):  53 y(1,2,0) + v(2,1,0) - u(2,1,0) <= 53
MCLin9(2,1,0):  53 y(1,2,0) - u(2,1,0) >= -0
MCLin10(2,1,0):  -38 y(1,2,0) + v(2,1,0) - u(2,1,0) >= -38
MCLinV(1,2,1):  x(1,1) - v(1,2,1) - x(2,1) = 2
MCLinV(2,1,1):  - x(1,1) - v(2,1,1) + x(2,1) = 4
MCLin1(1,2,1):  u(1,2,1) >= -0
MCLin2(1,2,1):  -33 y(2,1,1) - u(1,2,1) <= -0
MCLin3(1,2,1):  58 y(2,1,1) + v(1,2,1) - u(1,2,1) <= 58
MCLin4(1,2,1):  58 y(2,1,1) - u(1,2,1) >= -0
MCLin5(1,2,1):  -33 y(2,1,1) + v(1,2,1) - u(1,2,1) >= -33
MCLin6(2,1,1):  u(2,1,1) >= -0
MCLin7(2,1,1):  -64 y(1,2,1) - u(2,1,1) <= -0
MCLin8(2,1,1):  27 y(1,2,1) + v(2,1,1) - u(2,1,1) <= 27
MCLin9(2,1,1):  27 y(1,2,1) - u(2,1,1) >= -0
MCLin10(2,1,1):  -64 y(1,2,1) + v(2,1,1) - u(2,1,1) >= -64
MCLinV(1,2,2):  x(1,2) - v(1,2,2) - x(2,2) = 1
MCLinV(2,1,2):  - x(1,2) - v(2,1,2) + x(2,2) = 4
MCLin1(1,2,2):  u(1,2,2) >= -0
MCLin2(1,2,2):  -41 y(2,1,2) - u(1,2,2) <= -0
MCLin3(1,2,2):  50 y(2,1,2) + v(1,2,2) - u(1,2,2) <= 50
MCLin4(1,2,2):  50 y(2,1,2) - u(1,2,2) >= -0
MCLin5(1,2,2):  -41 y(2,1,2) + v(1,2,2) - u(1,2,2) >= -41
MCLin6(2,1,2):  u(2,1,2) >= -0
MCLin7(2,1,2):  -55 y(1,2,2) - u(2,1,2) <= -0
MCLin8(2,1,2):  36 y(1,2,2) + v(2,1,2) - u(2,1,2) <= 36
MCLin9(2,1,2):  36 y(1,2,2) - u(2,1,2) >= -0
MCLin10(2,1,2):  -55 y(1,2,2) + v(2,1,2) - u(2,1,2) >= -55
MCLinV(1,2,3):  x(1,3) - v(1,2,3) - x(2,3) = 10
MCLinV(2,1,3):  - x(1,3) - v(2,1,3) + x(2,3) = 6
MCLin1(1,2,3):  u(1,2,3) >= -0
MCLin2(1,2,3):  -49 y(2,1,3) - u(1,2,3) <= -0
MCLin3(1,2,3):  42 y(2,1,3) + v(1,2,3) - u(1,2,3) <= 42
MCLin4(1,2,3):  42 y(2,1,3) - u(1,2,3) >= -0
MCLin5(1,2,3):  -49 y(2,1,3) + v(1,2,3) - u(1,2,3) >= -49
MCLin6(2,1,3):  u(2,1,3) >= -0
MCLin7(2,1,3):  -58 y(1,2,3) - u(2,1,3) <= -0
MCLin8(2,1,3):  33 y(1,2,3) + v(2,1,3) - u(2,1,3) <= 33
MCLin9(2,1,3):  33 y(1,2,3) - u(2,1,3) >= -0
MCLin10(2,1,3):  -58 y(1,2,3) + v(2,1,3) - u(2,1,3) >= -58
makespan(0):  C - x(0,1) >= 8
makespan(1):  C - x(1,1) >= 4
makespan(2):  C - x(2,0) >= 5
Bounds
 0 <= C <= 65
 0 <= x(0,0) <= 39
 0 <= y(0,1,0) <= 1
 0 <= y(1,0,0) <= 1
 -51 <= v(0,1,0) <= 32
 -40 <= v(1,0,0) <= 43
 -650 <= u(0,1,0)
 -650 <= u(1,0,0)
 0 <= y(0,2,0) <= 1
 0 <= y(2,0,0) <= 1
 -65 <= v(0,2,0) <= 21
 -27 <= v(2,0,0) <= 59
 -650 <= u(0,2,0)
 -650 <= u(2,0,0)
 0 <= x(1,0) <= 44
 0 <= y(1,2,0) <= 1
 0 <= y(2,1,0) <= 1
 -65 <= v(1,2,0) <= 26
 -38 <= v(2,1,0) <= 53
 -650 <= u(1,2,0)
 -650 <= u(2,1,0)
 13 <= x(2,0) <= 60
 18 <= x(0,1) <= 57
 0 <= y(0,1,1) <= 1
 0 <= y(1,0,1) <= 1
 -47 <= v(0,1,1) <= 36
 -48 <= v(1,0,1) <= 35
 -650 <= u(0,1,1)
 -650 <= u(1,0,1)
 0 <= y(0,2,1) <= 1
 0 <= y(2,0,1) <= 1
 -32 <= v(0,2,1) <= 54
 -64 <= v(2,0,1) <= 22
 -650 <= u(0,2,1)
 -650 <= u(2,0,1)
 17 <= x(1,1) <= 61
 0 <= y(1,2,1) <= 1
 0 <= y(2,1,1) <= 1
 -33 <= v(1,2,1) <= 58
 -64 <= v(2,1,1) <= 27
 -650 <= u(1,2,1)
 -650 <= u(2,1,1)
 1 <= x(2,1) <= 48
 9 <= x(0,2) <= 48
 0 <= y(0,1,2) <= 1
 0 <= y(1,0,2) <= 1
 -46 <= v(0,1,2) <= 37
 -50 <= v(1,0,2) <= 33
 -650 <= u(0,1,2)
 -650 <= u(1,0,2)
 0 <= y(0,2,2) <= 1
 0 <= y(2,0,2) <= 1
 -39 <= v(0,2,2) <= 47
 -57 <= v(2,0,2) <= 29
 -650 <= u(0,2,2)
 -650 <= u(2,0,2)
 7 <= x(1,2) <= 51
 0 <= y(1,2,2) <= 1
 0 <= y(2,1,2) <= 1
 -41 <= v(1,2,2) <= 50
 -55 <= v(2,1,2) <= 36
 -650 <= u(1,2,2)
 -650 <= u(2,1,2)
 0 <= x(2,2) <= 47
 1 <= x(0,3) <= 40
 0 <= y(0,1,3) <= 1
 0 <= y(1,0,3) <= 1
 -60 <= v(0,1,3) <= 23
 -37 <= v(1,0,3) <= 46
 -650 <= u(0,1,3)
 -650 <= u(1,0,3)
 0 <= y(0,2,3) <= 1
 0 <= y(2,0,3) <= 1
 -59 <= v(0,2,3) <= 27
 -45 <= v(2,0,3) <= 41
 -650 <= u(0,2,3)
 -650 <= u(2,0,3)
 11 <= x(1,3) <= 55
 0 <= y(1,2,3) <= 1
 0 <= y(2,1,3) <= 1
 -49 <= v(1,2,3) <= 42
 -58 <= v(2,1,3) <= 33
 -650 <= u(1,2,3)
 -650 <= u(2,1,3)
 3 <= x(2,3) <= 50
Integers
C x(0,0) y(0,1,0) y(1,0,0) v(0,1,0) v(1,0,0) u(0,1,0) u(1,0,0) y(0,2,0) y(2,0,0) 
v(0,2,0) v(2,0,0) u(0,2,0) u(2,0,0) x(1,0) y(1,2,0) y(2,1,0) v(1,2,0) v(2,1,0) u(1,2,0) 
u(2,1,0) x(2,0) x(0,1) y(0,1,1) y(1,0,1) v(0,1,1) v(1,0,1) u(0,1,1) u(1,0,1) y(0,2,1) 
y(2,0,1) v(0,2,1) v(2,0,1) u(0,2,1) u(2,0,1) x(1,1) y(1,2,1) y(2,1,1) v(1,2,1) v(2,1,1) 
u(1,2,1) u(2,1,1) x(2,1) x(0,2) y(0,1,2) y(1,0,2) v(0,1,2) v(1,0,2) u(0,1,2) u(1,0,2) 
y(0,2,2) y(2,0,2) v(0,2,2) v(2,0,2) u(0,2,2) u(2,0,2) x(1,2) y(1,2,2) y(2,1,2) v(1,2,2) 
v(2,1,2) u(1,2,2) u(2,1,2) x(2,2) x(0,3) y(0,1,3) y(1,0,3) v(0,1,3) v(1,0,3) u(0,1,3) 
u(1,0,3) y(0,2,3) y(2,0,3) v(0,2,3) v(2,0,3) u(0,2,3) u(2,0,3) x(1,3) y(1,2,3) y(2,1,3) 
v(1,2,3) v(2,1,3) u(1,2,3) u(2,1,3) x(2,3) 
End
